
  14    0


   0   9 2 3 4 5 9 10 11 12 13 
   3   2 8 7 
   5   2 7 6 
   8   1 6 
   8   1 6 
   8   1 14
   9   1 14
   1   1 14
   9   1 14
   8   1 14
   4   1 14
   2   1 14
   5   1 14
   0   0 
